#######################################
### Exact MIP solver for the HHCRSP ###
#######################################
-- Instance file: new-instances/HHCRSP_50_10_68_0.8_R_RC.txt
-- Max threads: 4
-- Time limit: 999999 seconds
-- Use initial solution: No
Trivial flow violations prevented generating 5838 variables.
Model exported.
Version identifier: 20.1.0.0 | 2020-11-10 | 9bedb6d68
CPXPARAM_Threads                                 4
CPXPARAM_TimeLimit                               999999
Parallel mode: deterministic, using up to 4 threads for concurrent optimization:
 * Starting dual Simplex on 1 thread...
 * Starting Barrier on 3 threads...
Tried aggregator 1 time.
LP Presolve eliminated 1776 rows and 586 columns.
Reduced LP has 10812 rows, 10421 columns, and 97184 nonzeros.
Presolve time = 0.05 sec. (27.43 ticks)
Symmetry aggregator did 12979 additional substitutions.

Iteration log . . .
Iteration:     1   Dual objective     =             0.000000

Dual crossover.
  Dual:  Fixing 102 variables.
      101 DMoves:  Infeasibility  2.32036733e-14  Objective  1.28000000e+02
        0 DMoves:  Infeasibility  1.73750024e-14  Objective  1.28000000e+02
  Dual:  Pushed 5, exchanged 97.
  Primal:  Fixing 75 variables.
       74 PMoves:  Infeasibility  0.00000000e+00  Objective  1.28000000e+02
        0 PMoves:  Infeasibility  0.00000000e+00  Objective  1.28000000e+02
  Primal:  Pushed 48, exchanged 27.

Dual simplex solved model.


Solution status from MIP model:
-- Processing time: 0.092 sec.
-- Memory used: 75.3262 MB
-- Best bound: inf
-- Obj value: 128
-- Gap: inf%
-- Total distance: 384
-- Total tardiness: 0
-- Largest tardiness: 0
